36 1000
7 132
10 150
6 100
3 116
9 100
6 133
6 178
7 122
2 175
8 112
5 178
4 156
10 195
9 115
3 133
9 122
10 122
7 155
4 156
3 157
6 122
10 112
6 147
10 157
5 147
10 188
5 195
11 132
3 175
2 150
8 188
6 155
2 115
8 116
2 154
6 154
